data;
param n:=100;
param w:=1 305 2 306 3 61 4 95 5 -220 6 -305 7 -463 8 256 9 132 10 -461 11 22 12 -209 13 348 14 -515 15 322 16 -422 17 271 18 337 19 109 20 241 21 248 22 330 23 -64 24 -383 25 182 26 9 27 -433 28 44 29 -258 30 -83 31 -112 32 -499 33 467 34 176 35 -68 36 -488 37 415 38 273 39 -458 40 469 41 -433 42 -398 43 442 44 -247 45 -78 46 18 47 -174 48 -334 49 278 50 -8 51 -20 52 104 53 -40 54 417 55 -178 56 -490 57 60 58 -385 59 -199 60 306 61 217 62 258 63 -505 64 -97 65 165 66 149 67 222 68 449 69 301 70 -192 71 87 72 85 73 -162 74 -270 75 -491 76 -122 77 232 78 457 79 116 80 202 81 110 82 224 83 -383 84 -129 85 263 86 100 87 -104 88 385 89 40 90 308 91 66 92 -455 93 431 94 -63 95 -121 96 -11 97 -168 98 -99 99 386 100 -499;
